
Gurobi 9.5.2 (win64) logging started Mon Mar 27 20:28:00 2023

Set parameter LogFile to value "2023-03-27_20hr-25min-09sec/Nodes40_Arcs45_LocNodes30/Formulation-2Instance-4.log"
Set parameter TimeLimit to value 600
Set parameter IntFeasTol to value 1e-09
Set parameter DualReductions to value 0
Set parameter NonConvex to value 2
Gurobi Optimizer version 9.5.2 build v9.5.2rc0 (win64)
Thread count: 4 physical cores, 8 logical processors, using up to 8 threads
Optimize a model with 156 rows, 270 columns and 550 nonzeros
Model fingerprint: 0x5fddd938
Model has 85 quadratic objective terms
Model has 85 SOS constraints
Variable types: 240 continuous, 30 integer (30 binary)
Coefficient statistics:
  Matrix range     [1e-02, 2e+02]
  Objective range  [3e-02, 1e+03]
  QObjective range [3e-02, 8e+00]
  Bounds range     [1e+00, 1e+00]
  RHS range        [3e-02, 3e+03]
Presolve removed 27 rows and 31 columns
Presolve time: 0.00s
Presolved: 129 rows, 239 columns, 486 nonzeros
Presolved model has 77 SOS constraint(s)
Presolved model has 77 quadratic objective terms
Variable types: 209 continuous, 30 integer (30 binary)

Root relaxation: objective 1.269592e+06, 280 iterations, 0.00 seconds (0.00 work units)

    Nodes    |    Current Node    |     Objective Bounds      |     Work
 Expl Unexpl |  Obj  Depth IntInf | Incumbent    BestBd   Gap | It/Node Time

     0     0 1269592.16    0    7          - 1269592.16      -     -    0s
H    0     0                    1264950.0459 1269592.16  0.37%     -    0s
H    0     0                    1265181.7301 1269592.16  0.35%     -    0s
     0     0 1269504.42    0    9 1265181.73 1269504.42  0.34%     -    0s
H    0     0                    1268359.6225 1269504.42  0.09%     -    0s
H    0     0                    1268511.1590 1269504.42  0.08%     -    0s
     0     0 1269230.18    0    8 1268511.16 1269230.18  0.06%     -    0s
     0     0 1269067.66    0    3 1268511.16 1269067.66  0.04%     -    0s
     0     0 1268705.83    0    7 1268511.16 1268705.83  0.02%     -    0s

Cutting planes:
  Implied bound: 4
  MIR: 1
  Flow cover: 6

Explored 1 nodes (486 simplex iterations) in 0.09 seconds (0.02 work units)
Thread count was 8 (of 8 available processors)

Solution count 5: 1.26851e+06 1.26836e+06 1.26518e+06 ... 1.26495e+06

Optimal solution found (tolerance 1.00e-04)
Best objective 1.268511159038e+06, best bound 1.268553329823e+06, gap 0.0033%

User-callback calls 302, time in user-callback 0.00 sec
